CMPL model generation - running

CMPL version: 1.11.0
Authors: Thomas Schleiff, Mike Steglich
Distributed under the GPLv3 

create model instance ...
write model instance ...
CMPL model generation - finished

Solver - running


Welcome to IBM(R) ILOG(R) CPLEX(R) Interactive Optimizer 12.7.1.0
  with Simplex, Mixed Integer & Barrier Optimizers
5725-A06 5725-A29 5724-Y48 5724-Y49 5724-Y54 5724-Y55 5655-Y21
Copyright IBM Corp. 1988, 2017.  All Rights Reserved.

Type 'help' for a list of available commands.
Type 'help' followed by a command name for more
information on commands.

CPLEX> Specified objective sense: MINIMIZE
Selected objective  name:  line[1]
Selected RHS        name:  RHS
Selected bound      name:  BOUND
Problem '/tmp/cmpl.T24645.mps' read.
Read time = 0.05 sec. (8.19 ticks)
CPLEX> CPXPARAM_Read_APIEncoding                        "UTF-8"
Tried aggregator 3 times.
MIP Presolve eliminated 19041 rows and 30320 columns.
MIP Presolve modified 340 coefficients.
Aggregator did 770 substitutions.
Reduced MIP has 2544 rows, 3503 columns, and 10207 nonzeros.
Reduced MIP has 3335 binaries, 0 generals, 0 SOSs, and 0 indicators.
Presolve time = 0.06 sec. (40.92 ticks)
Found incumbent of value 1815.143059 after 0.11 sec. (72.39 ticks)
Probing fixed 22 vars, tightened 0 bounds.
Probing time = 0.01 sec. (4.64 ticks)
Tried aggregator 1 time.
MIP Presolve eliminated 0 rows and 22 columns.
MIP Presolve modified 118 coefficients.
Reduced MIP has 2544 rows, 3481 columns, and 10163 nonzeros.
Reduced MIP has 3481 binaries, 0 generals, 0 SOSs, and 0 indicators.
Presolve time = 0.01 sec. (8.65 ticks)
Probing time = 0.01 sec. (2.71 ticks)
Clique table members: 6333.
MIP emphasis: balance optimality and feasibility.
MIP search method: dynamic search.
Parallel mode: none, using 1 thread.
Root relaxation solution time = 0.01 sec. (7.50 ticks)

        Nodes                                         Cuts/
   Node  Left     Objective  IInf  Best Integer    Best Bound    ItCnt     Gap

*     0+    0                         1815.1431       -3.9956           100.22%
*     0     0      integral     0      496.4527      496.4527      339    0.00%
Elapsed time = 0.16 sec. (103.97 ticks, tree = 0.00 MB, solutions = 2)

Root node processing (before b&c):
  Real time             =    0.17 sec. (105.22 ticks)
Sequential b&c:
  Real time             =    0.00 sec. (0.00 ticks)
                          ------------
Total (root+branch&cut) =    0.17 sec. (105.22 ticks)

Solution pool: 2 solutions saved.

MIP - Integer optimal solution:  Objective =  4.9645274800e+02
Solution time =    0.17 sec.  Iterations = 339  Nodes = 0
Deterministic time = 105.32 ticks  (631.47 ticks/sec)

CPLEX> Incumbent solution written to file '/tmp/cmpl.T24645.gsol'.
CPLEX> 
CMPL: Time used for model generation: 0 seconds
CMPL: Time used for solving the model: 1 seconds


Solution written to ASCII file: results/output_generated_conf_0.8/2017-03-06-4/fair-nonlinear.sol

Solver - finished
